R=16;
C=23;
bomb=[|0,0,0,0,M,0,0,0,0,0,0,M,0,0,0,0,M,0,0,0,0,0,0,|
M,0,0,0,0,0,0,0,0,0,0,0,0,0,0,0,0,0,M,0,0,M,0,|
0,0,0,0,0,0,0,M,0,0,0,0,0,M,M,0,0,0,0,0,M,0,0,|
0,0,0,0,0,0,0,0,0,0,0,0,0,0,0,0,0,0,0,0,0,0,0,|
0,0,0,0,0,0,0,0,0,0,0,0,0,0,0,0,0,0,0,0,0,M,0,|
0,0,0,0,0,0,0,M,0,0,0,0,0,0,0,0,0,0,0,0,0,0,0,|
0,0,0,0,0,0,0,0,0,0,0,0,0,0,0,0,0,0,0,0,0,0,0,|
0,0,0,0,0,0,0,0,M,0,0,M,0,0,0,0,0,0,0,0,0,0,M,|
0,0,0,0,0,0,M,0,0,0,0,0,0,0,0,0,0,0,0,0,0,0,0,|
0,0,0,0,0,0,0,0,0,0,0,0,0,0,0,0,0,0,0,0,0,0,0,|
0,0,0,0,M,0,0,0,0,0,0,0,0,0,0,0,0,0,0,0,0,0,0,|
M,0,0,0,0,0,M,0,0,0,0,0,M,0,0,0,0,0,0,0,0,0,0,|
0,M,0,0,0,0,0,0,0,0,0,0,0,0,0,0,0,0,0,M,0,0,0,|
0,0,0,0,0,0,0,0,0,0,0,0,0,0,0,0,0,0,0,M,0,0,0,|
0,0,0,0,0,0,0,0,0,0,0,0,0,0,0,0,M,0,0,0,0,0,M,|
0,0,0,0,M,0,0,0,M,0,0,0,0,0,0,0,0,0,0,0,0,0,0,|];